/*********************************************
 * OPL 12.9.0.0 Data
 * Author: Ася Троян
 * Creation Date: Sep 28, 2020 at 1:36:46 PM
 *********************************************/

 rooms = {"18", "sport1", "trudy",  "21","22","23","24", "25", "26", "27", "31","32","33","34"};
 
 teachers = {"ivanova", "petrova", "sidorova", "shumova", "trudovik", "stoprtteacher"};
 
 classes = {"5a", "5b", "6a", "6b", "7a", "7b", "8a", "8b", "9a", "9b","10a", "10b", "11a", "11b"};
 
 // day,  shift, lesson number
 lessons = { 
 111, 112, 113, 114, 115, 116, 117, 121, 122, 123, 124, 125, 126, 127//,
/* 211, 212, 213, 214, 215, 216, 217, 221, 222, 223, 224, 225, 226, 227,
 311, 312, 313, 314, 315, 316, 317, 321, 322, 323, 324, 325, 326, 327,
 411, 412, 413, 414, 415, 416, 417, 421, 422, 423, 424, 425, 426, 427,
 511, 512, 513, 514, 515, 516, 517, 521, 522, 523, 524, 525, 526, 527,
 611, 612, 613, 614, 615, 616, 617, 621, 622, 623, 624, 625, 626, 627*/
    };
 
 
 roomTeachersRelation = [
 [2,1,1,1,0,0],
 [0,0,0,0,0,2],
 [0,0,0,0,2,0],
 [1,2,1,1,0,0],
 [1,2,1,1,0,0],
 [2,1,1,1,0,0],
[1,2,1,1,0,0],
[1,2,1,1,0,0],
[2,1,1,1,0,0],
[1,2,1,1,0,0],
[1,2,1,1,0,0],
[1,2,1,1,0,0],
[2,1,1,1,0,0],
[2,1,1,1,0,0]
 ];
 
 teacherClassRelation = [
 [3, 3, 0, 0, 2, 2, 0, 0, 0, 0, 0, 0, 0, 0],
 [0, 0, 3, 3, 2, 2, 0, 0, 0, 0, 0, 0, 3, 3],
 [1, 1, 1, 1, 1, 1, 1, 1, 1, 1, 1, 1, 1, 1],
 [0, 0, 0, 0, 0, 0, 3, 3, 3, 3, 3, 3, 0, 0],
 [2, 2, 2, 2, 2, 2, 2, 2, 2, 2, 2, 2, 2, 2],
 [2, 2, 2, 2, 2, 2, 2, 2, 2, 2, 2, 2, 2, 2]
 ];
 
 classLessonRelation = [
 [0,0,0,0,0,0,0,1,1,1,1,1,1,1],
 [0,0,0,0,0,0,0,1,1,1,1,1,1,1],
 [1,1,1,1,1,1,1,0,0,0,0,0,0,0],
 [1,1,1,1,1,1,1,0,0,0,0,0,0,0],
 [0,0,0,0,0,0,0,1,1,1,1,1,1,1],
 [0,0,0,0,0,0,0,1,1,1,1,1,1,1],
 [1,1,1,1,1,1,1,0,0,0,0,0,0,0],
 [1,1,1,1,1,1,1,0,0,0,0,0,0,0],
 [0,0,0,0,0,0,0,1,1,1,1,1,1,1],
 [0,0,0,0,0,0,0,1,1,1,1,1,1,1],
 [1,1,1,1,1,1,1,0,0,0,0,0,0,0],
 [1,1,1,1,1,1,1,0,0,0,0,0,0,0],
 [0,0,0,0,0,0,0,1,1,1,1,1,1,1],
 [0,0,0,0,0,0,0,1,1,1,1,1,1,1]
 ];
 
 teacherLessonRelation = [
 [1,1,1,1,1,1,1,1,1,1,1,1,1,1],
 [1,1,1,1,1,1,1,1,1,1,1,1,1,1],
 [1,1,1,1,1,1,1,1,1,1,1,1,1,1],
 [1,1,1,1,1,1,1,1,1,1,1,1,1,1],
 [0,0,0,0,1,1,1,1,1,1,1,1,1,1],
 [1,1,1,1,1,1,1,1,1,0,0,0,0,1]
 ];